CPXPARAM_Read_DataCheck                          1
CPXPARAM_Threads                                 1
CPXPARAM_TimeLimit                               600
Tried aggregator 1 time.
LP Presolve eliminated 53 rows and 19 columns.
Reduced LP has 29 rows, 41 columns, and 95 nonzeros.
Presolve time = 0.00 sec. (0.06 ticks)

Iteration log . . .
Iteration:     1   Dual objective     =          1743.965517
CPLEX Error  3003: Not a mixed-integer problem.
